data/mip_solutions/furman_sahinidis/transportation/8sp1_gurobi.sol
Elapsed time: 0.138535022736
Nodes explored: 14
Upper bound: 9.0
Lower bound: 9.0
y[0,2]=1
y[1,0]=1
y[1,1]=1
y[2,1]=1
y[2,3]=1
y[2,4]=1
y[3,2]=1
y[3,3]=1
y[4,0]=1
q[0,0,2,3]=122.5
q[0,0,2,4]=325.5
q[0,1,2,2]=1053.0
q[0,1,2,3]=739.0
q[0,2,0,2]=1.13686837722e-12
q[0,2,2,3]=1120.0
q[1,1,0,1]=472.0
q[1,1,1,1]=928.0
q[1,2,0,2]=1008.0
q[1,2,0,3]=42.0
q[1,3,0,3]=232.0
q[1,3,1,3]=574.75
q[1,3,1,5]=418.25
q[2,2,1,2]=1392.0
q[2,2,1,3]=138.75
q[2,2,1,4]=179.25
q[2,3,1,3]=1606.5
q[2,3,3,3]=1243.5
q[2,4,1,4]=168.75
q[2,4,3,4]=258.75
q[2,5,1,5]=393.75
q[2,5,3,5]=603.75
q[2,6,3,6]=172.5
q[2,6,4,7]=112.5
q[3,3,2,3]=1528.5
q[3,3,3,3]=481.5
q[3,4,2,4]=201.0
q[4,0,0,1]=536.0
q[4,0,0,3]=1406.0
