data/mip_solutions/furman_sahinidis/transportation/8sp1_gurobi.log

Gurobi 6.5.2 (linux64) logging started Tue Jun  6 12:38:49 2017

Changed value of parameter LogFile to test_cases/mip_solutions/furman_sahinidis/transportation/8sp1_gurobi.log
   Prev: gurobi.log  Default: 
Changed value of parameter Threads to 1
   Prev: 0  Min: 0  Max: 1024  Default: 0
Optimize a model with 807 rows, 1627 columns and 5548 nonzeros
Coefficient statistics:
  Matrix range    [1e+00, 5e+03]
  Objective range [1e+00, 1e+00]
  Bounds range    [1e+00, 1e+00]
  RHS range       [1e+00, 4e+03]
Found heuristic solution: objective 21
Presolve removed 759 rows and 1461 columns
Presolve time: 0.00s
Presolved: 48 rows, 166 columns, 461 nonzeros
Variable types: 148 continuous, 18 integer (18 binary)

Root relaxation: objective 7.000000e+00, 117 iterations, 0.00 seconds

    Nodes    |    Current Node    |     Objective Bounds      |     Work
 Expl Unexpl |  Obj  Depth IntInf | Incumbent    BestBd   Gap | It/Node Time

     0     0    7.00000    0    5   21.00000    7.00000  66.7%     -    0s
H    0     0                      10.0000000    7.00000  30.0%     -    0s
H    0     0                       9.0000000    7.00000  22.2%     -    0s
     0     0    7.00000    0   12    9.00000    7.00000  22.2%     -    0s
     0     0    7.00000    0    9    9.00000    7.00000  22.2%     -    0s
     0     0    7.02523    0   11    9.00000    7.02523  21.9%     -    0s
     0     0    7.22464    0   10    9.00000    7.22464  19.7%     -    0s
     0     0    7.45517    0   12    9.00000    7.45517  17.2%     -    0s
     0     0    7.45517    0   12    9.00000    7.45517  17.2%     -    0s
     0     0    7.45957    0   13    9.00000    7.45957  17.1%     -    0s
     0     0    7.45957    0    4    9.00000    7.45957  17.1%     -    0s
     0     0    7.45957    0    3    9.00000    7.45957  17.1%     -    0s
     0     0    7.45957    0   11    9.00000    7.45957  17.1%     -    0s
     0     0    7.45957    0   12    9.00000    7.45957  17.1%     -    0s
     0     0    7.74855    0    8    9.00000    7.74855  13.9%     -    0s
     0     0    7.79451    0   13    9.00000    7.79451  13.4%     -    0s
     0     0    7.79451    0   12    9.00000    7.79451  13.4%     -    0s
     0     0    7.79451    0   13    9.00000    7.79451  13.4%     -    0s
     0     0    8.00000    0    2    9.00000    8.00000  11.1%     -    0s
     0     2    8.00000    0    2    9.00000    8.00000  11.1%     -    0s

Cutting planes:
  Gomory: 1
  Implied bound: 4
  MIR: 3
  Flow cover: 6
  Network: 4

Explored 14 nodes (1278 simplex iterations) in 0.04 seconds
Thread count was 1 (of 8 available processors)

Optimal solution found (tolerance 4.00e-02)
Best objective 9.000000000000e+00, best bound 9.000000000000e+00, gap 0.0%

Gurobi 6.5.2 (linux64) logging started Mon Jul 24 16:43:29 2017

Changed value of parameter LogFile to data/mip_solutions/furman_sahinidis/transportation/8sp1_gurobi.log
   Prev: gurobi.log  Default: 
Changed value of parameter Threads to 1
   Prev: 0  Min: 0  Max: 1024  Default: 0
Optimize a model with 807 rows, 1627 columns and 5548 nonzeros
Coefficient statistics:
  Matrix range    [1e+00, 5e+03]
  Objective range [1e+00, 1e+00]
  Bounds range    [1e+00, 1e+00]
  RHS range       [1e+00, 4e+03]
Found heuristic solution: objective 21
Presolve removed 759 rows and 1461 columns
Presolve time: 0.00s
Presolved: 48 rows, 166 columns, 461 nonzeros
Variable types: 148 continuous, 18 integer (18 binary)

Root relaxation: objective 7.000000e+00, 117 iterations, 0.00 seconds

    Nodes    |    Current Node    |     Objective Bounds      |     Work
 Expl Unexpl |  Obj  Depth IntInf | Incumbent    BestBd   Gap | It/Node Time

     0     0    7.00000    0    5   21.00000    7.00000  66.7%     -    0s
H    0     0                      10.0000000    7.00000  30.0%     -    0s
H    0     0                       9.0000000    7.00000  22.2%     -    0s
     0     0    7.00000    0   12    9.00000    7.00000  22.2%     -    0s
     0     0    7.00000    0    9    9.00000    7.00000  22.2%     -    0s
     0     0    7.02523    0   11    9.00000    7.02523  21.9%     -    0s
     0     0    7.22464    0   10    9.00000    7.22464  19.7%     -    0s
     0     0    7.45517    0   12    9.00000    7.45517  17.2%     -    0s
     0     0    7.45517    0   12    9.00000    7.45517  17.2%     -    0s
     0     0    7.45957    0   13    9.00000    7.45957  17.1%     -    0s
     0     0    7.45957    0    4    9.00000    7.45957  17.1%     -    0s
     0     0    7.45957    0    3    9.00000    7.45957  17.1%     -    0s
     0     0    7.45957    0   11    9.00000    7.45957  17.1%     -    0s
     0     0    7.45957    0   12    9.00000    7.45957  17.1%     -    0s
     0     0    7.74855    0    8    9.00000    7.74855  13.9%     -    0s
     0     0    7.79451    0   13    9.00000    7.79451  13.4%     -    0s
     0     0    7.79451    0   12    9.00000    7.79451  13.4%     -    0s
     0     0    7.79451    0   13    9.00000    7.79451  13.4%     -    0s
     0     0    8.00000    0    2    9.00000    8.00000  11.1%     -    0s
     0     2    8.00000    0    2    9.00000    8.00000  11.1%     -    0s

Cutting planes:
  Gomory: 1
  Implied bound: 4
  MIR: 3
  Flow cover: 6
  Network: 4

Explored 14 nodes (1278 simplex iterations) in 0.04 seconds
Thread count was 1 (of 8 available processors)

Optimal solution found (tolerance 4.00e-02)
Best objective 9.000000000000e+00, best bound 9.000000000000e+00, gap 0.0%

Gurobi 6.5.2 (linux64) logging started Mon Jul 24 16:45:07 2017

Changed value of parameter LogFile to data/mip_solutions/furman_sahinidis/transportation/8sp1_gurobi.log
   Prev: gurobi.log  Default: 
Changed value of parameter Threads to 1
   Prev: 0  Min: 0  Max: 1024  Default: 0
Optimize a model with 807 rows, 1627 columns and 5548 nonzeros
Coefficient statistics:
  Matrix range    [1e+00, 5e+03]
  Objective range [1e+00, 1e+00]
  Bounds range    [1e+00, 1e+00]
  RHS range       [1e+00, 4e+03]
Found heuristic solution: objective 21
Presolve removed 759 rows and 1461 columns
Presolve time: 0.00s
Presolved: 48 rows, 166 columns, 461 nonzeros
Variable types: 148 continuous, 18 integer (18 binary)

Root relaxation: objective 7.000000e+00, 117 iterations, 0.00 seconds

    Nodes    |    Current Node    |     Objective Bounds      |     Work
 Expl Unexpl |  Obj  Depth IntInf | Incumbent    BestBd   Gap | It/Node Time

     0     0    7.00000    0    5   21.00000    7.00000  66.7%     -    0s
H    0     0                      10.0000000    7.00000  30.0%     -    0s
H    0     0                       9.0000000    7.00000  22.2%     -    0s
     0     0    7.00000    0   12    9.00000    7.00000  22.2%     -    0s
     0     0    7.00000    0    9    9.00000    7.00000  22.2%     -    0s
     0     0    7.02523    0   11    9.00000    7.02523  21.9%     -    0s
     0     0    7.22464    0   10    9.00000    7.22464  19.7%     -    0s
     0     0    7.45517    0   12    9.00000    7.45517  17.2%     -    0s
     0     0    7.45517    0   12    9.00000    7.45517  17.2%     -    0s
     0     0    7.45957    0   13    9.00000    7.45957  17.1%     -    0s
     0     0    7.45957    0    4    9.00000    7.45957  17.1%     -    0s
     0     0    7.45957    0    3    9.00000    7.45957  17.1%     -    0s
     0     0    7.45957    0   11    9.00000    7.45957  17.1%     -    0s
     0     0    7.45957    0   12    9.00000    7.45957  17.1%     -    0s
     0     0    7.74855    0    8    9.00000    7.74855  13.9%     -    0s
     0     0    7.79451    0   13    9.00000    7.79451  13.4%     -    0s
     0     0    7.79451    0   12    9.00000    7.79451  13.4%     -    0s
     0     0    7.79451    0   13    9.00000    7.79451  13.4%     -    0s
     0     0    8.00000    0    2    9.00000    8.00000  11.1%     -    0s
     0     2    8.00000    0    2    9.00000    8.00000  11.1%     -    0s

Cutting planes:
  Gomory: 1
  Implied bound: 4
  MIR: 3
  Flow cover: 6
  Network: 4

Explored 14 nodes (1278 simplex iterations) in 0.04 seconds
Thread count was 1 (of 8 available processors)

Optimal solution found (tolerance 4.00e-02)
Best objective 9.000000000000e+00, best bound 9.000000000000e+00, gap 0.0%

Gurobi 6.5.2 (linux64) logging started Mon Jul 24 16:57:50 2017

Changed value of parameter LogFile to data/mip_solutions/furman_sahinidis/transportation/8sp1_gurobi.log
   Prev: gurobi.log  Default: 
Changed value of parameter Threads to 1
   Prev: 0  Min: 0  Max: 1024  Default: 0
Optimize a model with 807 rows, 1627 columns and 5548 nonzeros
Coefficient statistics:
  Matrix range    [1e+00, 5e+03]
  Objective range [1e+00, 1e+00]
  Bounds range    [1e+00, 1e+00]
  RHS range       [1e+00, 4e+03]
Found heuristic solution: objective 21
Presolve removed 759 rows and 1461 columns
Presolve time: 0.00s
Presolved: 48 rows, 166 columns, 461 nonzeros
Variable types: 148 continuous, 18 integer (18 binary)

Root relaxation: objective 7.000000e+00, 117 iterations, 0.00 seconds

    Nodes    |    Current Node    |     Objective Bounds      |     Work
 Expl Unexpl |  Obj  Depth IntInf | Incumbent    BestBd   Gap | It/Node Time

     0     0    7.00000    0    5   21.00000    7.00000  66.7%     -    0s
H    0     0                      10.0000000    7.00000  30.0%     -    0s
H    0     0                       9.0000000    7.00000  22.2%     -    0s
     0     0    7.00000    0   12    9.00000    7.00000  22.2%     -    0s
     0     0    7.00000    0    9    9.00000    7.00000  22.2%     -    0s
     0     0    7.02523    0   11    9.00000    7.02523  21.9%     -    0s
     0     0    7.22464    0   10    9.00000    7.22464  19.7%     -    0s
     0     0    7.45517    0   12    9.00000    7.45517  17.2%     -    0s
     0     0    7.45517    0   12    9.00000    7.45517  17.2%     -    0s
     0     0    7.45957    0   13    9.00000    7.45957  17.1%     -    0s
     0     0    7.45957    0    4    9.00000    7.45957  17.1%     -    0s
     0     0    7.45957    0    3    9.00000    7.45957  17.1%     -    0s
     0     0    7.45957    0   11    9.00000    7.45957  17.1%     -    0s
     0     0    7.45957    0   12    9.00000    7.45957  17.1%     -    0s
     0     0    7.74855    0    8    9.00000    7.74855  13.9%     -    0s
     0     0    7.79451    0   13    9.00000    7.79451  13.4%     -    0s
     0     0    7.79451    0   12    9.00000    7.79451  13.4%     -    0s
     0     0    7.79451    0   13    9.00000    7.79451  13.4%     -    0s
     0     0    8.00000    0    2    9.00000    8.00000  11.1%     -    0s
     0     2    8.00000    0    2    9.00000    8.00000  11.1%     -    0s

Cutting planes:
  Gomory: 1
  Implied bound: 4
  MIR: 3
  Flow cover: 6
  Network: 4

Explored 14 nodes (1278 simplex iterations) in 0.04 seconds
Thread count was 1 (of 8 available processors)

Optimal solution found (tolerance 4.00e-02)
Best objective 9.000000000000e+00, best bound 9.000000000000e+00, gap 0.0%

Gurobi 6.5.2 (linux64) logging started Wed Jul 26 11:54:39 2017

Changed value of parameter LogFile to data/mip_solutions/furman_sahinidis/transportation/8sp1_gurobi.log
   Prev: gurobi.log  Default: 
Changed value of parameter Threads to 1
   Prev: 0  Min: 0  Max: 1024  Default: 0
Optimize a model with 807 rows, 1627 columns and 5548 nonzeros
Coefficient statistics:
  Matrix range    [1e+00, 5e+03]
  Objective range [1e+00, 1e+00]
  Bounds range    [1e+00, 1e+00]
  RHS range       [1e+00, 4e+03]
Found heuristic solution: objective 21
Presolve removed 759 rows and 1461 columns
Presolve time: 0.00s
Presolved: 48 rows, 166 columns, 461 nonzeros
Variable types: 148 continuous, 18 integer (18 binary)

Root relaxation: objective 7.000000e+00, 117 iterations, 0.00 seconds

    Nodes    |    Current Node    |     Objective Bounds      |     Work
 Expl Unexpl |  Obj  Depth IntInf | Incumbent    BestBd   Gap | It/Node Time

     0     0    7.00000    0    5   21.00000    7.00000  66.7%     -    0s
H    0     0                      10.0000000    7.00000  30.0%     -    0s
H    0     0                       9.0000000    7.00000  22.2%     -    0s
     0     0    7.00000    0   12    9.00000    7.00000  22.2%     -    0s
     0     0    7.00000    0    9    9.00000    7.00000  22.2%     -    0s
     0     0    7.02523    0   11    9.00000    7.02523  21.9%     -    0s
     0     0    7.22464    0   10    9.00000    7.22464  19.7%     -    0s
     0     0    7.45517    0   12    9.00000    7.45517  17.2%     -    0s
     0     0    7.45517    0   12    9.00000    7.45517  17.2%     -    0s
     0     0    7.45957    0   13    9.00000    7.45957  17.1%     -    0s
     0     0    7.45957    0    4    9.00000    7.45957  17.1%     -    0s
     0     0    7.45957    0    3    9.00000    7.45957  17.1%     -    0s
     0     0    7.45957    0   11    9.00000    7.45957  17.1%     -    0s
     0     0    7.45957    0   12    9.00000    7.45957  17.1%     -    0s
     0     0    7.74855    0    8    9.00000    7.74855  13.9%     -    0s
     0     0    7.79451    0   13    9.00000    7.79451  13.4%     -    0s
     0     0    7.79451    0   12    9.00000    7.79451  13.4%     -    0s
     0     0    7.79451    0   13    9.00000    7.79451  13.4%     -    0s
     0     0    8.00000    0    2    9.00000    8.00000  11.1%     -    0s
     0     2    8.00000    0    2    9.00000    8.00000  11.1%     -    0s

Cutting planes:
  Gomory: 1
  Implied bound: 4
  MIR: 3
  Flow cover: 6
  Network: 4

Explored 14 nodes (1278 simplex iterations) in 0.04 seconds
Thread count was 1 (of 8 available processors)

Optimal solution found (tolerance 4.00e-02)
Best objective 9.000000000000e+00, best bound 9.000000000000e+00, gap 0.0%
